4953
3766
14942
11559
9350
12104
1789
1454
12634
8232
7652
1295
1401
7403
7741
8426
5499
1439
3212
8433
17140
13905
8551
13586
7288
20127
21620
12004
6587
16366
8382
10489
11526
17009
9363
956
17350
14841
18148
4158
11218
15241
2416
3431
2737
22278
13760
6732
25823
1594
8486
4858
12533
4601
3067
1310
6293
9735
18884
18323
7569
11028
1631
993
21634
13104
10777
4493
11708
8154
8342
5624
12780
1810
15962
3043
5667
4839
12773
10307
5855
7638
3634
13401
14611
9147
12589
16040
14507
2928
15982
24676
6121
19556
11125
6882
4660
3313
14801